data/MCDM/NO_CORR/GEN_FROM_60/12_ITEMS_1000_GEN/K5012W01.KNP.mps
NAME          BLANK   
ROWS
 N  OBJROW
 L  R0000000
COLUMNS
    C0000000  OBJROW     -238.         R0000000  594.        
    C0000001  OBJROW     -178.         R0000000  774.        
    C0000002  OBJROW     -688.         R0000000  334.        
    C0000003  OBJROW     -939.         R0000000  849.        
    C0000004  OBJROW     -744.         R0000000  868.        
    C0000005  OBJROW     -817.         R0000000  563.        
    C0000006  OBJROW     -740.         R0000000  602.        
    C0000007  OBJROW     -396.         R0000000  60.         
    C0000008  OBJROW     -543.         R0000000  423.        
    C0000009  OBJROW     -692.         R0000000  620.        
    C0000010  OBJROW     -764.         R0000000  782.        
    C0000011  OBJROW     -694.         R0000000  615.        
RHS
    RHS       R0000000  14156.      
BOUNDS
 BV BOUND     C0000000  1.          
 BV BOUND     C0000001  1.          
 BV BOUND     C0000002  1.          
 BV BOUND     C0000003  1.          
 BV BOUND     C0000004  1.          
 BV BOUND     C0000005  1.          
 BV BOUND     C0000006  1.          
 BV BOUND     C0000007  1.          
 BV BOUND     C0000008  1.          
 BV BOUND     C0000009  1.          
 BV BOUND     C0000010  1.          
 BV BOUND     C0000011  1.          
ENDATA
