interdiction/MCDM/NO_CORR/GEN_FROM_60/12_ITEMS_1000_GEN/K5012W01.KNP.txt
N 12
M 13
LC 12
LC 13
LC 14
LC 15
LC 16
LC 17
LC 18
LC 19
LC 20
LC 21
LC 22
LC 23
LR 1
LR 2
LR 3
LR 4
LR 5
LR 6
LR 7
LR 8
LR 9
LR 10
LR 11
LR 12
LR 13
LO -238
LO -178
LO -688
LO -939
LO -744
LO -817
LO -740
LO -396
LO -543
LO -692
LO -764
LO -694
OS 1
IC 769
IC 545
IC 600
IC 357
IC 838
IC 927
IC 177
IC 303
IC 523
IC 199
IC 662
IC 283
IB 3092
